PROBLEM NAME:	a280-TTP
KNAPSACK DATA TYPE:bounded strongly corr
DIMENSION:280
NUMBER OF ITEMS:279
CAPACITY OF KNAPSACK:25936
MIN SPEED:0.1
MAX SPEED:1
RENTING RATIO:5.61
EDGE_WEIGHT_TYPE:CEIL_2D
NODE_COORD_SECTION (INDEX, X, Y): 
ITEMS SECTION (INDEX, PROFIT, WEIGHT, ASSIGNED NODE NUMBER): 
speed capacity ratio: 3.47008e-05
